\ENCODING=ISO-8859-1
\Problem name: IloCplex

Minimize
 obj1: W_1 + W_2 + W_3
Subject To
 c1: W_1 + W_2 + W_3  = 999
 c2: W_1 <= 420
 c3: W_2 <= 330
 c4: W_3 <= 303
 c5: <= 722
Bounds
      W_1 >= 0
      W_2 >= 0
      W_3 >= 0
Generals
 W_1  W_2  W_3 
End
